51
1 0 20
2 0 6
2 1 1
3 0 21
3 1 22
3 2 13
4 0 10
4 1 3
4 2 7
4 3 18
5 0 7
5 1 11
5 2 9
5 3 12
5 4 12
6 0 11
6 1 1
6 2 11
6 3 14
6 4 22
6 5 6
7 0 21
7 1 4
7 2 19
7 3 7
7 4 14
7 5 12
7 6 4
8 0 2
8 1 1
8 2 2
8 3 11
8 4 15
8 5 15
8 6 1
8 7 19
9 0 4
9 1 13
9 2 18
9 3 1
9 4 13
9 5 4
9 6 3
9 7 13
9 8 17
10 0 10
10 1 12
10 2 19
10 3 5
10 4 14
10 5 6
10 6 10
10 7 13
10 8 1
10 9 1
11 0 4
11 1 14
11 2 2
11 3 18
11 4 18
11 5 19
11 6 12
11 7 21
11 8 7
11 9 22
11 10 10
12 0 5
12 1 20
12 2 18
12 3 20
12 4 17
12 5 11
12 6 13
12 7 5
12 8 5
12 9 16
12 10 22
12 11 20
13 0 15
13 1 9
13 2 6
13 3 19
13 4 2
13 5 3
13 6 13
13 7 15
13 8 16
13 9 15
13 10 22
13 11 19
13 12 3
14 0 6
14 1 18
14 2 10
14 3 18
14 4 6
14 5 1
14 6 2
14 7 2
14 8 18
14 9 9
14 10 17
14 11 11
14 12 4
14 13 1
15 0 2
15 1 12
15 2 1
15 3 22
15 4 21
15 5 20
15 6 8
15 7 12
15 8 15
15 9 12
15 10 10
15 11 8
15 12 20
15 13 21
15 14 15
16 0 18
16 1 9
16 2 9
16 3 4
16 4 8
16 5 5
16 6 15
16 7 13
16 8 19
16 9 3
16 10 20
16 11 21
16 12 18
16 13 15
16 14 14
16 15 20
17 0 12
17 1 15
17 2 13
17 3 3
17 4 12
17 5 2
17 6 9
17 7 14
17 8 10
17 9 20
17 10 6
17 11 2
17 12 11
17 13 7
17 14 12
17 15 11
17 16 13
18 0 5
18 1 17
18 2 7
18 3 14
18 4 21
18 5 4
18 6 16
18 7 12
18 8 15
18 9 5
18 10 13
18 11 3
18 12 19
18 13 6
18 14 8
18 15 16
18 16 2
18 17 17
19 0 8
19 1 5
19 2 11
19 3 13
19 4 5
19 5 4
19 6 22
19 7 14
19 8 5
19 9 16
19 10 8
19 11 4
19 12 1
19 13 12
19 14 22
19 15 9
19 16 22
19 17 14
19 18 15
20 0 14
20 1 1
20 2 22
20 3 18
20 4 22
20 5 7
20 6 16
20 7 13
20 8 20
20 9 9
20 10 22
20 11 20
20 12 21
20 13 6
20 14 7
20 15 17
20 16 18
20 17 15
20 18 18
20 19 15
21 0 20
21 1 7
21 2 20
21 3 18
21 4 6
21 5 20
21 6 14
21 7 6
21 8 14
21 9 10
21 10 19
21 11 20
21 12 17
21 13 3
21 14 19
21 15 19
21 16 12
21 17 14
21 18 22
21 19 18
21 20 4
22 0 11
22 1 10
22 2 13
22 3 12
22 4 2
22 5 15
22 6 20
22 7 13
22 8 11
22 9 1
22 10 3
22 11 22
22 12 3
22 13 2
22 14 5
22 15 1
22 16 4
22 17 15
22 18 16
22 19 14
22 20 6
22 21 10
23 0 21
23 1 21
23 2 5
23 3 10
23 4 22
23 5 6
23 6 3
23 7 11
23 8 5
23 9 2
23 10 21
23 11 21
23 12 2
23 13 7
23 14 1
23 15 13
23 16 2
23 17 4
23 18 10
23 19 5
23 20 11
23 21 14
23 22 10
24 0 3
24 1 4
24 2 7
24 3 10
24 4 20
24 5 12
24 6 13
24 7 14
24 8 20
24 9 9
24 10 16
24 11 12
24 12 14
24 13 12
24 14 14
24 15 22
24 16 13
24 17 20
24 18 11
24 19 13
24 20 16
24 21 22
24 22 8
24 23 19
25 0 17
25 1 19
25 2 16
25 3 1
25 4 5
25 5 6
25 6 18
25 7 5
25 8 20
25 9 20
25 10 9
25 11 12
25 12 2
25 13 20
25 14 5
25 15 2
25 16 4
25 17 8
25 18 21
25 19 17
25 20 15
25 21 6
25 22 3
25 23 9
25 24 10
26 0 18
26 1 8
26 2 22
26 3 11
26 4 5
26 5 1
26 6 2
26 7 7
26 8 15
26 9 22
26 10 1
26 11 7
26 12 19
26 13 5
26 14 5
26 15 22
26 16 10
26 17 2
26 18 15
26 19 10
26 20 9
26 21 4
26 22 12
26 23 9
26 24 2
26 25 15
27 0 10
27 1 7
27 2 1
27 3 5
27 4 21
27 5 2
27 6 18
27 7 12
27 8 21
27 9 8
27 10 1
27 11 18
27 12 10
27 13 10
27 14 3
27 15 12
27 16 14
27 17 1
27 18 13
27 19 17
27 20 6
27 21 15
27 22 7
27 23 10
27 24 1
27 25 9
27 26 6
28 0 11
28 1 21
28 2 19
28 3 7
28 4 21
28 5 9
28 6 12
28 7 2
28 8 2
28 9 22
28 10 1
28 11 11
28 12 14
28 13 20
28 14 14
28 15 18
28 16 2
28 17 9
28 18 12
28 19 12
28 20 4
28 21 2
28 22 6
28 23 13
28 24 14
28 25 14
28 26 18
28 27 16
29 0 19
29 1 2
29 2 14
29 3 1
29 4 17
29 5 14
29 6 21
29 7 10
29 8 18
29 9 2
29 10 10
29 11 7
29 12 13
29 13 6
29 14 10
29 15 8
29 16 20
29 17 4
29 18 19
29 19 8
29 20 8
29 21 11
29 22 20
29 23 6
29 24 8
29 25 19
29 26 21
29 27 18
29 28 3
30 0 14
30 1 18
30 2 1
30 3 17
30 4 1
30 5 21
30 6 19
30 7 21
30 8 15
30 9 1
30 10 9
30 11 4
30 12 22
30 13 7
30 14 21
30 15 6
30 16 19
30 17 21
30 18 6
30 19 6
30 20 14
30 21 13
30 22 3
30 23 18
30 24 16
30 25 21
30 26 3
30 27 16
30 28 9
30 29 2
31 0 16
31 1 16
31 2 17
31 3 9
31 4 5
31 5 17
31 6 4
31 7 4
31 8 15
31 9 7
31 10 7
31 11 8
31 12 13
31 13 18
31 14 4
31 15 7
31 16 17
31 17 4
31 18 2
31 19 10
31 20 19
31 21 5
31 22 21
31 23 7
31 24 20
31 25 10
31 26 19
31 27 17
31 28 19
31 29 6
31 30 5
32 0 14
32 1 11
32 2 17
32 3 9
32 4 17
32 5 4
32 6 8
32 7 7
32 8 22
32 9 1
32 10 7
32 11 7
32 12 21
32 13 12
32 14 1
32 15 11
32 16 15
32 17 10
32 18 17
32 19 15
32 20 4
32 21 20
32 22 11
32 23 1
32 24 11
32 25 21
32 26 22
32 27 2
32 28 6
32 29 8
32 30 2
32 31 8
33 0 7
33 1 13
33 2 12
33 3 20
33 4 2
33 5 5
33 6 21
33 7 7
33 8 22
33 9 5
33 10 12
33 11 11
33 12 12
33 13 7
33 14 20
33 15 2
33 16 7
33 17 6
33 18 19
33 19 2
33 20 12
33 21 18
33 22 7
33 23 7
33 24 6
33 25 14
33 26 13
33 27 6
33 28 21
33 29 9
33 30 5
33 31 20
33 32 18
34 0 22
34 1 2
34 2 6
34 3 20
34 4 9
34 5 14
34 6 6
34 7 11
34 8 16
34 9 13
34 10 3
34 11 9
34 12 16
34 13 19
34 14 20
34 15 19
34 16 2
34 17 10
34 18 3
34 19 20
34 20 22
34 21 1
34 22 10
34 23 13
34 24 16
34 25 20
34 26 6
34 27 21
34 28 14
34 29 18
34 30 9
34 31 7
34 32 17
34 33 5
35 0 10
35 1 14
35 2 22
35 3 7
35 4 1
35 5 10
35 6 14
35 7 19
35 8 4
35 9 10
35 10 2
35 11 18
35 12 18
35 13 14
35 14 5
35 15 16
35 16 4
35 17 19
35 18 3
35 19 3
35 20 10
35 21 19
35 22 16
35 23 1
35 24 12
35 25 18
35 26 8
35 27 18
35 28 4
35 29 13
35 30 8
35 31 5
35 32 14
35 33 15
35 34 19
36 0 8
36 1 15
36 2 7
36 3 2
36 4 18
36 5 19
36 6 20
36 7 4
36 8 22
36 9 8
36 10 9
36 11 9
36 12 22
36 13 17
36 14 13
36 15 20
36 16 6
36 17 4
36 18 4
36 19 11
36 20 6
36 21 10
36 22 9
36 23 16
36 24 19
36 25 14
36 26 21
36 27 2
36 28 21
36 29 21
36 30 7
36 31 21
36 32 15
36 33 16
36 34 2
36 35 14
37 0 9
37 1 21
37 2 7
37 3 2
37 4 18
37 5 20
37 6 10
37 7 13
37 8 8
37 9 18
37 10 8
37 11 22
37 12 19
37 13 17
37 14 18
37 15 10
37 16 4
37 17 14
37 18 22
37 19 4
37 20 10
37 21 20
37 22 1
37 23 10
37 24 16
37 25 12
37 26 11
37 27 11
37 28 15
37 29 17
37 30 1
37 31 16
37 32 8
37 33 7
37 34 11
37 35 7
37 36 18
38 0 3
38 1 7
38 2 21
38 3 21
38 4 3
38 5 20
38 6 19
38 7 6
38 8 1
38 9 13
38 10 1
38 11 7
38 12 9
38 13 20
38 14 19
38 15 10
38 16 5
38 17 20
38 18 13
38 19 1
38 20 4
38 21 20
38 22 12
38 23 19
38 24 16
38 25 17
38 26 20
38 27 21
38 28 5
38 29 7
38 30 6
38 31 14
38 32 11
38 33 18
38 34 16
38 35 13
38 36 17
38 37 15
39 0 20
39 1 15
39 2 20
39 3 7
39 4 4
39 5 7
39 6 8
39 7 14
39 8 2
39 9 7
39 10 1
39 11 14
39 12 17
39 13 17
39 14 14
39 15 16
39 16 12
39 17 4
39 18 6
39 19 2
39 20 12
39 21 19
39 22 16
39 23 18
39 24 16
39 25 17
39 26 12
39 27 21
39 28 6
39 29 16
39 30 12
39 31 16
39 32 21
39 33 17
39 34 16
39 35 4
39 36 14
39 37 14
39 38 10
40 0 12
40 1 16
40 2 21
40 3 19
40 4 11
40 5 13
40 6 18
40 7 1
40 8 15
40 9 8
40 10 11
40 11 8
40 12 16
40 13 21
40 14 3
40 15 5
40 16 18
40 17 4
40 18 14
40 19 9
40 20 17
40 21 13
40 22 11
40 23 7
40 24 7
40 25 15
40 26 22
40 27 17
40 28 5
40 29 9
40 30 14
40 31 16
40 32 1
40 33 10
40 34 9
40 35 5
40 36 17
40 37 15
40 38 4
40 39 8
41 0 16
41 1 22
41 2 19
41 3 10
41 4 14
41 5 21
41 6 1
41 7 13
41 8 4
41 9 5
41 10 7
41 11 1
41 12 6
41 13 20
41 14 11
41 15 9
41 16 5
41 17 22
41 18 3
41 19 13
41 20 11
41 21 6
41 22 8
41 23 9
41 24 6
41 25 10
41 26 2
41 27 11
41 28 15
41 29 16
41 30 17
41 31 14
41 32 7
41 33 20
41 34 2
41 35 22
41 36 10
41 37 4
41 38 2
41 39 21
41 40 7
42 0 1
42 1 13
42 2 20
42 3 6
42 4 15
42 5 15
42 6 2
42 7 8
42 8 11
42 9 8
42 10 9
42 11 18
42 12 19
42 13 9
42 14 15
42 15 2
42 16 11
42 17 9
42 18 22
42 19 5
42 20 6
42 21 7
42 22 15
42 23 20
42 24 9
42 25 1
42 26 20
42 27 16
42 28 13
42 29 19
42 30 15
42 31 10
42 32 17
42 33 19
42 34 3
42 35 10
42 36 9
42 37 7
42 38 19
42 39 18
42 40 16
42 41 6
43 0 15
43 1 20
43 2 11
43 3 1
43 4 15
43 5 21
43 6 13
43 7 20
43 8 12
43 9 4
43 10 17
43 11 8
43 12 4
43 13 3
43 14 20
43 15 3
43 16 20
43 17 15
43 18 19
43 19 19
43 20 4
43 21 8
43 22 19
43 23 19
43 24 22
43 25 4
43 26 18
43 27 20
43 28 2
43 29 15
43 30 17
43 31 11
43 32 5
43 33 1
43 34 7
43 35 17
43 36 6
43 37 19
43 38 7
43 39 19
43 40 16
43 41 20
43 42 8
44 0 3
44 1 7
44 2 13
44 3 16
44 4 11
44 5 20
44 6 3
44 7 14
44 8 11
44 9 1
44 10 5
44 11 13
44 12 19
44 13 10
44 14 6
44 15 7
44 16 2
44 17 2
44 18 2
44 19 13
44 20 20
44 21 18
44 22 2
44 23 14
44 24 15
44 25 3
44 26 6
44 27 4
44 28 13
44 29 13
44 30 7
44 31 20
44 32 6
44 33 1
44 34 18
44 35 2
44 36 20
44 37 9
44 38 12
44 39 4
44 40 1
44 41 12
44 42 15
44 43 6
45 0 6
45 1 6
45 2 5
45 3 11
45 4 9
45 5 18
45 6 21
45 7 7
45 8 5
45 9 15
45 10 8
45 11 14
45 12 19
45 13 11
45 14 20
45 15 2
45 16 1
45 17 16
45 18 18
45 19 13
45 20 3
45 21 12
45 22 3
45 23 16
45 24 9
45 25 21
45 26 13
45 27 12
45 28 9
45 29 1
45 30 13
45 31 22
45 32 18
45 33 16
45 34 19
45 35 6
45 36 10
45 37 2
45 38 22
45 39 19
45 40 6
45 41 13
45 42 12
45 43 10
45 44 17
46 0 5
46 1 17
46 2 15
46 3 17
46 4 17
46 5 2
46 6 9
46 7 4
46 8 17
46 9 13
46 10 5
46 11 14
46 12 14
46 13 9
46 14 3
46 15 2
46 16 8
46 17 1
46 18 14
46 19 6
46 20 18
46 21 5
46 22 14
46 23 13
46 24 3
46 25 12
46 26 4
46 27 11
46 28 12
46 29 15
46 30 20
46 31 17
46 32 11
46 33 2
46 34 18
46 35 20
46 36 21
46 37 4
46 38 7
46 39 9
46 40 11
46 41 19
46 42 11
46 43 7
46 44 6
46 45 8
47 0 3
47 1 3
47 2 6
47 3 5
47 4 13
47 5 7
47 6 17
47 7 16
47 8 18
47 9 22
47 10 19
47 11 13
47 12 16
47 13 6
47 14 4
47 15 22
47 16 11
47 17 5
47 18 21
47 19 21
47 20 21
47 21 3
47 22 9
47 23 5
47 24 20
47 25 19
47 26 2
47 27 3
47 28 4
47 29 10
47 30 21
47 31 22
47 32 17
47 33 22
47 34 17
47 35 9
47 36 21
47 37 15
47 38 9
47 39 17
47 40 16
47 41 8
47 42 8
47 43 11
47 44 19
47 45 11
47 46 20
48 0 15
48 1 6
48 2 10
48 3 8
48 4 13
48 5 11
48 6 8
48 7 10
48 8 10
48 9 13
48 10 16
48 11 16
48 12 1
48 13 20
48 14 3
48 15 8
48 16 18
48 17 16
48 18 11
48 19 14
48 20 14
48 21 3
48 22 18
48 23 12
48 24 20
48 25 10
48 26 2
48 27 5
48 28 4
48 29 3
48 30 13
48 31 13
48 32 2
48 33 19
48 34 11
48 35 18
48 36 1
48 37 7
48 38 18
48 39 5
48 40 2
48 41 5
48 42 4
48 43 19
48 44 14
48 45 20
48 46 9
48 47 9
49 0 7
49 1 17
49 2 13
49 3 16
49 4 18
49 5 22
49 6 20
49 7 9
49 8 11
49 9 15
49 10 19
49 11 3
49 12 16
49 13 22
49 14 10
49 15 19
49 16 8
49 17 2
49 18 22
49 19 6
49 20 2
49 21 2
49 22 20
49 23 21
49 24 5
49 25 8
49 26 7
49 27 13
49 28 2
49 29 5
49 30 5
49 31 7
49 32 20
49 33 19
49 34 11
49 35 9
49 36 15
49 37 12
49 38 19
49 39 1
49 40 17
49 41 19
49 42 20
49 43 22
49 44 10
49 45 19
49 46 7
49 47 11
49 48 13
50 0 6
50 1 8
50 2 20
50 3 6
50 4 14
50 5 3
50 6 8
50 7 16
50 8 12
50 9 1
50 10 3
50 11 18
50 12 8
50 13 8
50 14 6
50 15 14
50 16 19
50 17 8
50 18 20
50 19 10
50 20 4
50 21 22
50 22 17
50 23 18
50 24 22
50 25 13
50 26 13
50 27 18
50 28 15
50 29 17
50 30 20
50 31 10
50 32 17
50 33 7
50 34 10
50 35 12
50 36 10
50 37 21
50 38 3
50 39 5
50 40 3
50 41 1
50 42 3
50 43 6
50 44 9
50 45 7
50 46 15
50 47 10
50 48 13
50 49 9
